WARNING: for repeatability, setting FPU to use double precision
============================[ Problem Statistics ]=============================
|                                                                             |
|  Number of variables:           100                                         |
|  Number of clauses:             449                                         |
|  Parse time:                   0.00 s                                       |
|  Eliminated clauses:           0.00 Mb                                      |
|  Simplification time:          0.00 s                                       |
|                                                                             |
============================[ Search Statistics ]==============================
| Conflicts |          ORIGINAL         |          LEARNT          | Progress |
|           |    Vars  Clauses Literals |    Limit  Clauses Lit/Cl |          |
===============================================================================
|       100 |      98      439     1320 |      160      100      7 |  0.011 % |
|       250 |      98      439     1320 |      177      169      6 |  0.011 % |
===============================================================================
restarts              : 3
conflicts             : 319            (82408 /sec)
decisions             : 401            (0.00 % random) (103591 /sec)
propagations          : 7352           (1899251 /sec)
conflict literals     : 1947           (18.47 % deleted)
Memory used           : 13.00 MB
CPU time              : 0.003871 s

SATISFIABLE
